1
1000
40
151 2
152 1
153 5
154 3
155 2
156 5
157 2
158 1
159 1
160 3
161 2
162 2
164 3
166 3
167 2
169 2
170 3
172 2
173 4
174 3
175 3
176 6
177 1
178 4
179 2
180 2
182 3
183 4
186 4
187 3
189 2
190 2
191 2
192 2
193 1
196 2
197 2
198 1
199 1
200 2
